1686
88 96 57 34 73 51 92 69 23 48 72 3 18 30 78 65 12 74 56 87 4 26 49 94 68 25 42 45 76 29 86 13 46 44 79 97 99 52 80 10 31 53 81 41 6 47 21 91 20 98 11 15 64 14 2 27 5 7 89 17 36 83 62 8 75 19 9 55 61 67 85 35 37 59 28 38 43 50 40 95 70 90 22 16 24 93 39 58 82 1 66 84 60 32 71 77 33 63 54 
